1012
0	110	165	181	190
58	190	287	391	483
0	147	301	383	468
0	234	382	413	493
0	77	255	321	422
57	91	221	339	395
304	566	641	705	722
48	118	417	641	696
117	246	676	740	830
154	248	553	568	669
287	726	819	924	953
413	483	576	819	887
91	567	830	893	899
489	649	826	862	964
170	722	758	862	893
